param sigma
: 1   2 :=
1 0.00001 0.99999
2 0.10000 0.90000
3 0.20000 0.80000
4 0.30000 0.70000
5 0.40000 0.60000
6 0.50000 0.50000
7 0.90000 0.10000
8 0.80000 0.20000
9 0.70000 0.30000
10 0.60000 0.40000
11 0.99999 0.00001
;
set S:=
1 2 3 4 5 6 7 8 9 10 11 12 13 14 15 16 17 18 19 ;

set C:=
1 2 3 4 5 6 7 8 9 10 11 12 13 14 15 16 17 18 19 20 21 ;

set A:=
1_1 1_2 2_2 2_3 3_3 3_4 3_5 4_31 4_32 5_37 5_38 5_39 6_52 6_53 6_54 7_79 7_80 7_81 8_88 8_89 9_89 9_90 9_91 10_109 10_110 11_113 11_114 12_119 12_120 13_121 13_122 14_122 14_123 15_126 15_127 16_127 16_128 17_128 17_129 18_140 18_141 19_142 19_143 20_143 20_144 21_145 21_146 ;

set T:=
1_1_2 1_3_4 1_5_6 1_7_8 1_9_10
2_1_2 2_3_4 2_5_6 2_7_8 2_9_10
3_1_2 3_3_4 3_5_6 3_7_8 3_9_10
4_1_2 4_3_4 4_5_6 4_7_8 4_9_10
5_1_2 5_3_4 5_5_6 5_7_8 5_9_10
;

set R:=
1 2 3 4 5 6 7 ;

set Ac[1]:=
1_1 1_2 ;
set Ac[2]:=
2_2 2_3 ;
set Ac[3]:=
3_3 3_4 3_5 ;
set Ac[4]:=
4_31 4_32 ;
set Ac[5]:=
5_37 5_38 5_39 ;
set Ac[6]:=
6_52 6_53 6_54 ;
set Ac[7]:=
7_79 7_80 7_81 ;
set Ac[8]:=
8_88 8_89 ;
set Ac[9]:=
9_89 9_90 9_91 ;
set Ac[10]:=
10_109 10_110 ;
set Ac[11]:=
11_113 11_114 ;
set Ac[12]:=
12_119 12_120 ;
set Ac[13]:=
13_121 13_122 ;
set Ac[14]:=
14_122 14_123 ;
set Ac[15]:=
15_126 15_127 ;
set Ac[16]:=
16_127 16_128 ;
set Ac[17]:=
17_128 17_129 ;
set Ac[18]:=
18_140 18_141 ;
set Ac[19]:=
19_142 19_143 ;
set Ac[20]:=
20_143 20_144 ;
set Ac[21]:=
21_145 21_146 ;

set Cs[1]:=
1 19 20 7 8 ;
set Cs[2]:=
1 19 7 8 11 ;
set Cs[3]:=
19 4 5 8 9 ;
set Cs[4]:=
3 5 6 9 15 ;
set Cs[5]:=
3 5 6 9 15 ;
set Cs[6]:=
3 5 6 9 15 ;
set Cs[7]:=
17 2 5 6 7 10 ;
set Cs[8]:=
3 5 6 7 10 ;
set Cs[9]:=
17 5 6 9 10 ;
set Cs[10]:=
17 4 5 6 9 ;
set Cs[11]:=
18 19 3 21 7 ;
set Cs[12]:=
16 2 7 9 11 12 ;
set Cs[13]:=
16 17 20 12 13 ;
set Cs[14]:=
3 5 6 9 14 ;
set Cs[15]:=
3 5 6 11 14 ;
set Cs[16]:=
3 5 21 6 14 ;
set Cs[17]:=
18 3 21 6 9 ;
set Cs[18]:=
3 6 9 11 12 ;
set Cs[19]:=
17 18 4 5 7 ;

set Ra[1_1]:=
1 3 ;
set Ra[1_2]:=
4 5 7 ;
set Ra[2_2]:=
1 2 4 6 ;
set Ra[2_3]:=
3 5 ;
set Ra[3_3]:=
1 2 6 ;
set Ra[3_4]:=
1 7 ;
set Ra[3_5]:=
1 3 4 7 ;
set Ra[4_31]:=
5 6 7 ;
set Ra[4_32]:=
2 3 5 ;
set Ra[5_37]:=
1 4 5 6 ;
set Ra[5_38]:=
2 ;
set Ra[5_39]:=
1 2 3 4 5 6 7 ;
set Ra[6_52]:=
2 3 4 6 7 ;
set Ra[6_53]:=
2 3 7 ;
set Ra[6_54]:=
2 3 4 7 ;
set Ra[7_79]:=
5 6 ;
set Ra[7_80]:=
1 3 5 7 ;
set Ra[7_81]:=
1 4 5 7 ;
set Ra[8_88]:=
2 3 ;
set Ra[8_89]:=
6 7 ;
set Ra[9_89]:=
2 6 7 ;
set Ra[9_90]:=
1 3 4 7 ;
set Ra[9_91]:=
1 2 3 ;
set Ra[10_109]:=
1 5 7 ;
set Ra[10_110]:=
2 6 7 ;
set Ra[11_113]:=
2 3 5 ;
set Ra[11_114]:=
1 2 3 5 ;
set Ra[12_119]:=
1 2 4 6 ;
set Ra[12_120]:=
2 4 5 6 7 ;
set Ra[13_121]:=
1 3 4 7 ;
set Ra[13_122]:=
5 ;
set Ra[14_122]:=
2 6 ;
set Ra[14_123]:=
1 2 3 6 ;
set Ra[15_126]:=
1 2 7 ;
set Ra[15_127]:=
2 3 5 ;
set Ra[16_127]:=
1 4 5 7 ;
set Ra[16_128]:=
4 5 ;
set Ra[17_128]:=
1 3 4 5 ;
set Ra[17_129]:=
1 2 3 4 6 7 ;
set Ra[18_140]:=
2 4 5 6 7 ;
set Ra[18_141]:=
1 3 4 5 ;
set Ra[19_142]:=
1 3 7 ;
set Ra[19_143]:=
1 5 6 ;
set Ra[20_143]:=
1 3 6 7 ;
set Ra[20_144]:=
1 2 3 4 ;
set Ra[21_145]:=
2 5 6 7 ;
set Ra[21_146]:=
3 6 7 ;


set Ts[1]:= 
4_9_10 4_7_8 4_5_6 ; 
set Ts[2]:= 
1_1_2 1_3_4 1_5_6 1_7_8 1_9_10 ; 
set Ts[3]:= 
1_9_10 2_9_10 3_9_10 4_9_10 5_9_10 ; 
set Ts[4]:= 
4_3_4 4_5_6 4_7_8 ; 
set Ts[5]:= 
1_9_10 2_1_2 2_3_4 ; 
set Ts[6]:= 
1_5_6 3_9_10 2_9_10 ; 
set Ts[7]:= 
5_3_4 3_9_10 4_7_8 ; 
set Ts[8]:= 
2_5_6 2_7_8 2_9_10 ; 
set Ts[9]:= 
3_1_2 3_3_4 3_5_6 3_7_8 3_9_10 ; 
set Ts[10]:= 
3_3_4 3_5_6 2_5_6 2_7_8 ; 
set Ts[11]:= 
5_5_6 5_7_8 5_9_10 ; 
set Ts[12]:= 
1_1_2 2_1_2 3_1_2 4_1_2 5_1_2 ;
set Ts[13]:=
2_5_6 2_7_8 2_9_10 ; 
set Ts[14]:=
4_3_4 5_9_10 1_3_4 2_5_6 ; 
set Ts[15]:= 
2_1_2 2_9_10 4_1_2 4_3_4 4_5_6 ; 
set Ts[16]:= 
3_5_6 3_7_8 4_3_4 4_5_6 ; 
set Ts[17]:= 
2_1_2 2_3_4 2_5_6 2_7_8 2_9_10 ; 
set Ts[18]:= 
4_3_4 4_5_6 3_1_2 3_3_4 ;
set Ts[19]:=
1_5_6 1_7_8 2_7_8 2_9_10 3_3_4 3_5_6 ; 

param rho:=
1 20
2 20
3 20
4 20
5 20
6 20
7 20
;

param sigma_class:=
1 20
2 20
3 20
4 20
5 20
6 20
7 20
8 20
9 20
10 20
11 20
12 20
13 20
14 20
15 20
16 20
17 20
18 20
19 20
20 20
21 20
;

param kmin:=
1 2
2 2
3 2
4 2
5 2
6 2
7 3
8 2
9 2
10 2
11 2
12 3
13 2
14 2
15 2
16 2
17 2
18 2
19 2
;

param kmax:=
1 5
2 5
3 5
4 5
5 5
6 5
7 6
8 5
9 5
10 5
11 5
12 6
13 5
14 5
15 5
16 5
17 5
18 5
19 5
;

